p cnf 23 7
a 1 0
e 2 0
a 3 0
e 4 5 6 0
a 7 0
e 8 0
a 9 10 0
e 11 0
a 12 0
e 13 14 0
a 15 0
e 16 0
a 17 18 0
e 19 0
a 20 0
e 21 0
a 22 0
e 23 0
-5 -19 0
-13 -8 0
-22 -21 -12 -7 0
10 19 20 11 0
8 16 7 1 -23 0
14 -22 -13 23 0
-9 18 21 -19 -6 0
